experiment/data/lkh-res/Vrp-Set-X-n251/Vrp-Set-X-n251-lkh/0.lkh1.vrp
NAME : 0
COMMENT : CVRP Instance
TYPE : CVRP
DIMENSION : 251
EDGE_WEIGHT_TYPE : EUC_2D
CAPACITY : 69
NODE_COORD_SECTION
1	11200	70000
2	36300	77900
3	24500	89600
4	23800	1900
5	18400	35100
6	30500	76300
7	36600	81400
8	13700	85700
9	56400	3100
10	30300	15700
11	52300	83000
12	13400	23100
13	85100	44500
14	74000	31100
15	16300	9500
16	27500	49900
17	47000	81400
18	45300	21700
19	81800	52500
20	31100	91100
21	17700	37400
22	23000	400
23	59000	30200
24	19600	10300
25	55300	87900
26	31600	44600
27	66500	37500
28	58700	60900
29	51000	9500
30	90700	45500
31	80500	95600
32	34200	34500
33	78500	30900
34	64900	58400
35	85000	2400
36	2600	12600
37	44700	81700
38	14500	52700
39	21800	82500
40	40500	15100
41	38900	43600
42	45200	61900
43	40700	36700
44	94800	51400
45	83600	99600
46	57800	33400
47	49100	92900
48	32500	69600
49	83800	84200
50	98300	78800
51	62300	54900
52	91500	7200
53	77400	33600
54	8100	23800
55	53400	53700
56	29500	40600
57	85300	35800
58	74200	58100
59	3200	96400
60	74700	35200
61	61000	79900
62	78600	85300
63	50600	16800
64	75500	95700
65	40800	6700
66	48500	73400
67	41900	25600
68	50800	15500
69	94100	58900
70	6800	4200
71	81700	59500
72	39700	27400
73	72700	30200
74	21600	23700
75	82100	32000
76	51600	53100
77	61400	16300
78	56100	92000
79	12800	83400
80	16200	53400
81	27900	64400
82	18800	32900
83	52000	30100
84	33600	78200
85	72800	23000
86	13900	84800
87	35000	15400
88	24200	16200
89	79100	92500
90	90700	49700
91	5200	59300
92	78600	45700
93	62900	74500
94	93500	43900
95	64100	7800
96	7800	83500
97	23200	22600
98	12300	47900
99	20500	84000
100	93200	35700
101	91700	91700
102	32500	55900
103	41300	37300
104	36200	47700
105	82700	88100
106	84500	26300
107	1100	93800
108	8800	53500
109	43600	20000
110	94000	31900
111	32500	5900
112	3400	26400
113	4700	47000
114	32200	8900
115	75700	2900
116	82500	28900
117	28700	30400
118	65700	8200
119	28800	40600
120	28700	62300
121	61600	82800
122	6000	44500
123	97800	51100
124	95600	17100
125	81800	18400
126	60500	46400
127	46200	93400
128	56300	22900
129	50600	3300
130	59900	89500
131	36400	9000
132	50400	2800
133	30400	85400
134	52500	22600
135	75300	92600
136	54400	12700
137	34300	12700
138	42200	27000
139	47200	10400
140	45300	84400
141	49300	3600
142	52600	13700
143	23000	99500
144	67500	27800
145	49500	42800
146	53500	5700
147	68400	15800
148	44600	3700
149	50700	6700
150	65400	33200
151	58500	22600
152	52600	93200
153	47900	28800
154	70800	10800
155	58800	15900
156	47300	89800
157	61800	8500
158	43300	37300
159	40900	20700
160	48800	2900
161	53100	20400
162	54600	21200
163	47000	92500
164	53400	88700
165	77000	7400
166	54600	4700
167	61200	17700
168	56500	12800
169	59700	29900
170	63000	39800
171	43300	93600
172	53800	2900
173	52400	6600
174	55900	18100
175	32600	84100
176	53300	8600
177	47000	2700
178	50300	13600
179	55700	30700
180	35000	1300
181	72000	95700
182	51500	10300
183	57700	9500
184	49600	20400
185	48200	32900
186	33800	91800
187	42700	79200
188	44100	29700
189	76400	23800
190	50400	14700
191	48800	6600
192	50900	20400
193	57500	22600
194	59600	93100
195	57800	92200
196	49600	16100
197	36100	96200
198	53900	86900
199	46000	14900
200	46800	80700
201	44800	4900
202	60900	10000
203	53700	700
204	53700	22800
205	69700	2900
206	44000	12000
207	40000	19000
208	46900	26400
209	42500	95000
210	56200	16700
211	52300	6100
212	57200	8200
213	42300	90300
214	45100	90800
215	51300	23600
216	44000	20300
217	62800	93400
218	63200	8400
219	52800	3000
220	49000	100
221	50800	18400
222	63500	2500
223	49000	10400
224	52800	200
225	43400	93800
226	48200	95700
227	45700	84700
228	45300	2400
229	49500	28700
230	18300	35400
231	56300	20100
232	44400	93000
233	81400	27800
234	35900	89300
235	49800	4900
236	52100	24000
237	59800	32500
238	55700	22800
239	55200	36700
240	66500	28700
241	54900	27700
242	47400	93700
243	49900	92200
244	52200	33700
245	44200	13000
246	55900	39800
247	49800	4600
248	56400	16200
249	52400	19300
250	51500	93500
251	60500	77300
DEMAND_SECTION
1	0
2	5
3	7
4	5
5	8
6	7
7	8
8	7
9	9
10	7
11	6
12	7
13	8
14	6
15	9
16	8
17	8
18	9
19	6
20	8
21	5
22	6
23	7
24	7
25	6
26	9
27	6
28	7
29	10
30	9
31	5
32	10
33	10
34	9
35	5
36	7
37	6
38	9
39	8
40	9
41	6
42	5
43	8
44	6
45	5
46	5
47	5
48	7
49	5
50	7
51	7
52	8
53	9
54	10
55	5
56	10
57	10
58	9
59	8
60	9
61	7
62	10
63	10
64	6
65	9
66	8
67	9
68	7
69	5
70	8
71	10
72	9
73	7
74	8
75	9
76	5
77	10
78	8
79	9
80	9
81	8
82	9
83	8
84	10
85	5
86	10
87	6
88	10
89	7
90	8
91	5
92	7
93	7
94	5
95	5
96	7
97	5
98	9
99	6
100	10
101	5
102	7
103	5
104	5
105	6
106	5
107	9
108	7
109	6
110	8
111	7
112	6
113	6
114	6
115	9
116	7
117	8
118	9
119	9
120	8
121	8
122	9
123	5
124	10
125	5
126	6
127	10
128	7
129	10
130	8
131	9
132	5
133	10
134	5
135	9
136	5
137	10
138	5
139	9
140	10
141	9
142	9
143	8
144	7
145	10
146	5
147	5
148	8
149	7
150	8
151	6
152	9
153	6
154	7
155	9
156	9
157	5
158	10
159	5
160	8
161	6
162	7
163	9
164	9
165	5
166	8
167	9
168	8
169	10
170	9
171	5
172	5
173	8
174	10
175	5
176	10
177	7
178	8
179	10
180	9
181	6
182	9
183	5
184	7
185	7
186	10
187	6
188	8
189	8
190	5
191	8
192	8
193	10
194	8
195	5
196	5
197	9
198	7
199	8
200	9
201	7
202	7
203	9
204	6
205	6
206	10
207	8
208	10
209	9
210	10
211	6
212	8
213	7
214	7
215	6
216	9
217	10
218	8
219	8
220	8
221	6
222	6
223	8
224	8
225	9
226	6
227	5
228	5
229	7
230	7
231	10
232	8
233	6
234	7
235	10
236	6
237	5
238	7
239	8
240	7
241	8
242	7
243	6
244	8
245	6
246	6
247	6
248	9
249	9
250	7
251	5
DEPOT_SECTION
1
-1
EOF
