experiment/data/lkh-res/Vrp-Set-X-n251/Vrp-Set-X-n251-lkh/0.lkh1.tour
NAME : 0.3916730.tour
COMMENT : Length = 3916730
COMMENT : Found by LKH-3 [Keld Helsgaun] Tue Apr  9 04:54:57 2024
TYPE : TOUR
DIMENSION : 278
TOUR_SECTION
1
33
233
106
116
75
57
13
92
51
260
182
29
223
139
206
245
40
207
252
209
225
171
232
127
226
242
163
175
271
170
150
73
14
53
60
126
55
76
42
277
234
213
214
156
227
140
17
200
187
273
28
58
71
69
123
44
90
19
34
264
244
179
23
169
237
46
239
246
145
276
66
251
61
121
135
217
194
195
164
257
181
64
89
31
45
101
50
49
105
62
93
254
176
212
222
205
118
95
218
157
202
183
263
37
11
198
25
130
78
152
250
243
47
274
27
240
144
85
189
125
154
147
77
167
268
32
72
67
138
188
158
103
41
104
262
6
84
7
2
48
81
261
120
102
16
26
56
119
80
38
259
165
115
35
52
124
110
100
94
30
270
235
247
141
160
177
228
148
201
65
266
43
153
215
192
249
161
134
236
229
185
255
149
219
172
9
166
146
211
173
178
190
269
12
15
24
4
22
70
36
54
112
272
208
184
221
63
68
196
199
109
216
267
74
97
88
10
114
131
137
87
117
265
174
210
248
155
168
136
142
18
278
91
113
122
82
5
230
21
98
108
256
39
133
20
186
197
143
3
99
258
204
162
231
151
193
128
238
241
83
275
159
191
129
132
203
224
220
180
111
253
96
107
59
8
86
79
-1
EOF
